GLPSOL: GLPK LP/MIP Solver, v4.55
Parameter(s) specified in the command line:
 -m tmp.mod
Reading model section from tmp.mod...
Reading data section from tmp.mod...
3663 lines were read
Generating obj...
Generating kirhoff...
Generating init_charge...
Generating batt_size...
Model has been successfully generated
GLPK Simplex Optimizer, v4.55
4199 rows, 6152 columns, 13172 non-zeros
Preprocessing...
3053 rows, 6002 columns, 12814 non-zeros
Scaling...
 A: min|aij| =  1.000e+00  max|aij| =  1.000e+00  ratio =  1.000e+00
Problem data seem to be well scaled
Constructing initial basis...
Size of triangular part is 2629
      0: obj =   0.000000000e+00  infeas =  1.620e+03 (424)
    500: obj =   1.600000000e+01  infeas =  4.980e+02 (300)
   1000: obj =   2.020000000e+02  infeas =  9.000e+00 (259)
*  1043: obj =   2.110000000e+02  infeas =  0.000e+00 (258)
*  1278: obj =   1.010000000e+02  infeas =  0.000e+00 (256)
OPTIMAL LP SOLUTION FOUND
Time used:   0.3 secs
Memory used: 12.2 Mb (12810393 bytes)
#OUTPUT:
101
-45 -45 -47 0 0 0 0 -45 0 0 2 2 0 0 0 0 -3 -26 -49 -8 -49 -16 -3 0 0 0 -5 0 0 0 2 -1 0 0 -1 0 -8 0 0 -2 0 0 0 0 0 0 0 -5 0 0 0 0 0 -45 0 0 -5 0 0 0 0 0 0 0 -1 -3 -16 0 0 0 0 1 0 -5 0 0 0 0 -16 0 -16 0 0 0 0 0 0 0 0 0 0 -16 -5 0 0 0 -3 0 -16 -2 0 0 0 -3 0 0 0 0 0 0 0 0 0 0 0 0 0 0 0 0 0 0 0 0 0 0 0 -5 0 0 0 0 0 0 0 0 0 0 0 0 0 0 0 0 0 0 0 -2 0 0 0 0 0 -18 0 0 -18 0 0 0 0 0 0 0 0 0 0 0 0 0 0 0 0 2 0 0 0 0 0 0 0 0 -16 0 1 0 0 0 0 0 0 0 0 0 0 0 0 0 0 0 0 -1 0 0 0 0 0 0 0 0 0 0 0 16 0 0 0 0 0 0 0 0 0 0 0 0 0 0 -16 0 0 0 0 0 0 0 0 0 0 0 0 0 0 0 0 0 0 0 0 0 0 0 0 0 0 0 0 0 -18 0 0 0 0 0 0 0 0 0 0 0 0 0 0 0 0 0 0 0 -31 0 0 0 0 0 0 0 0 0 1 0 0 0 0 0 0 0 0 0 0 0 0 0 0 0 0 2 1 0 0 0 2 0 5 0 2 -1 0 -19 0 0 0 -1 0 -2 0 0 -3 0 0 0 0 0 0 1 0 0 0 0 0 -16 0 0 0 16 0 0 0 0 0 0 0 0 0 0 0 18 0 0 0 0 0 0 0 31 0 0 -1 0 0 0 0 0 0 0 0 0 0 0 0 0 0 0 0 0 0 0 0 0 0 0 0 0 0 0 0 0 0 0 0 0 0 0 0 0 0 0 0 0 0 0 0 0 0 0 0 0 0 0 0 0 0 0 0 0 0 0 0 0 0 0 0 0 0 0 0 0 0 0 0 0 0 0 0 0 0 0 0 0 0 0 
-27 -4 0 -21 -21 -5 -2 0 0 -14 -2 0 1 0 0 0 0 0 0 0 0 0 0 0 -7 0 0 0 0 0 0 -7 0 0 -1 0 0 0 0 0 0 0 0 0 0 0 0 0 0 0 0 0 0 0 0 0 0 0 0 0 0 0 -5 0 0 0 0 0 -1 0 0 0 0 0 0 0 0 0 0 0 0 0 0 0 0 0 0 0 0 0 0 0 0 0 0 0 0 0 0 -25 0 0 0 0 25 0 0 0 0 0 0 0 0 0 0 0 0 0 0 0 0 0 0 0 0 0 0 1 0 0 0 0 0 0 0 0 0 0 0 0 0 0 0 0 0 0 1 -25 0 0 0 0 0 0 0 0 0 0 0 0 0 0 0 0 0 0 0 0 0 0 0 0 0 0 0 0 0 0 0 0 -5 0 0 0 1 0 0 0 0 2 0 0 0 0 0 0 0 0 0 0 -1 -7 0 0 0 0 0 0 0 0 0 0 0 0 0 0 0 0 0 0 0 0 0 0 0 0 0 0 0 5 0 0 0 0 0 0 0 0 0 -1 0 0 0 0 0 0 0 0 0 0 0 0 0 0 0 0 0 0 0 0 0 0 0 0 0 0 0 0 0 0 0 0 0 0 0 0 0 0 0 0 0 0 0 0 0 0 0 0 1 0 0 0 0 0 0 0 0 0 0 0 0 0 0 0 0 0 0 0 0 0 0 0 -1 0 25 -9 0 -9 0 0 0 -1 0 0 0 0 0 0 0 -2 0 0 6 7 0 0 0 0 0 0 0 0 0 0 -5 0 0 0 0 1 0 0 0 0 0 0 0 0 0 0 0 0 0 0 0 0 -1 0 0 0 0 0 0 0 0 0 0 0 0 0 0 0 0 0 0 0 0 0 0 0 0 0 0 0 0 0 0 0 0 0 0 0 0 0 0 0 0 0 0 0 0 0 0 0 0 0 0 0 0 0 0 0 0 0 0 0 0 0 0 0 0 0 0 0 0 0 0 0 0 0 0 0 0 0 0 0 0 0 0 0 
-58 0 -41 -39 -39 5 -19 3 -19 20 -2 2 2 11 0 0 0 -20 -12 -5 -11 -13 0 0 -2 0 -2 0 0 3 2 -2 0 0 0 0 -8 0 -10 -2 -16 0 0 -3 0 0 0 -5 0 0 0 0 0 0 0 0 -8 0 0 0 3 0 0 0 0 -3 -10 0 0 0 0 11 0 10 0 0 0 0 -10 0 0 0 0 0 0 3 0 0 0 0 0 0 -2 0 0 0 -8 1 0 -22 0 0 0 -3 20 0 0 0 -24 0 0 0 0 0 0 0 0 0 0 0 0 0 0 0 0 0 3 8 0 0 0 0 0 0 0 0 0 0 0 -1 0 0 0 0 0 0 -2 -22 0 0 0 0 0 0 -1 0 0 0 0 0 0 -1 0 3 0 0 0 0 0 0 -19 0 0 2 0 0 0 -5 0 0 0 0 -21 0 0 0 -6 0 0 0 -57 0 10 0 0 0 0 0 0 0 0 0 0 0 0 0 0 0 0 0 0 0 1 0 0 0 0 0 0 0 -1 0 0 0 0 0 0 0 -9 0 0 0 0 0 0 0 1 0 0 2 0 0 0 0 0 0 0 0 0 0 0 0 0 0 -1 1 0 0 0 0 0 0 0 0 -10 0 0 0 0 0 0 0 0 0 0 0 7 0 -11 0 0 -3 0 0 0 0 0 0 0 0 0 0 0 0 0 0 0 0 0 0 0 0 0 0 0 2 0 0 -3 0 2 3 -2 0 22 0 1 0 -6 3 0 0 0 -2 0 0 -3 -1 6 0 -24 0 0 0 0 0 0 0 0 0 0 0 0 9 0 0 0 0 -1 -2 0 0 0 0 -1 0 10 0 0 0 0 0 -7 11 3 0 0 0 0 0 0 0 0 0 0 0 0 0 0 0 0 0 0 0 0 0 0 0 0 0 0 0 0 0 0 0 0 0 0 0 0 0 0 0 0 0 0 0 0 0 0 0 0 0 0 0 0 0 0 0 0 0 0 0 0 0 0 0 0 0 0 0 0 0 0 0 0 0 0 0 0 0 0 0 0 0 0 0 0 0 
-32 -12 -25 0 0 -3 -19 0 -19 0 -2 2 -2 0 0 0 -3 -3 -1 0 0 -3 -7 0 0 0 -3 -4 0 0 2 0 0 0 0 0 0 0 -7 0 -16 0 0 -3 0 0 0 -6 9 0 0 0 0 0 0 0 -4 0 0 0 0 0 0 0 0 -4 0 0 0 0 0 0 0 -4 0 0 0 0 0 0 0 0 0 0 0 0 -1 0 0 0 0 0 -3 0 0 0 0 0 0 -1 0 0 0 0 0 0 2 0 0 0 0 0 0 -3 0 0 0 0 0 0 0 0 0 0 0 0 0 -2 0 0 0 0 -1 0 0 0 0 0 0 -1 0 0 0 0 0 0 -43 -1 0 0 0 0 2 0 -2 0 0 0 0 0 0 0 0 3 0 0 0 0 0 0 -15 0 1 0 0 0 0 5 0 0 0 0 -11 0 0 0 5 0 0 0 0 0 0 0 0 0 0 0 0 0 0 0 0 0 0 0 0 0 0 0 2 0 0 0 0 0 0 0 0 0 0 0 0 0 0 0 0 0 0 0 0 0 0 0 0 0 0 7 0 -2 0 0 0 0 0 0 -7 0 0 0 0 0 0 0 0 0 0 0 0 0 0 0 0 0 0 0 0 0 0 0 0 0 0 0 0 0 4 0 0 0 0 0 0 -2 0 0 0 0 0 0 0 0 0 -2 0 0 0 0 0 0 0 0 0 0 0 2 0 4 -3 0 1 6 -3 0 1 0 2 0 -3 0 0 0 -1 0 0 0 0 0 -5 0 0 0 0 0 0 0 0 -4 0 0 0 0 0 0 0 0 0 0 0 -43 0 0 7 0 0 0 0 0 0 0 0 0 -4 0 0 0 0 0 0 2 0 0 0 0 0 0 0 0 0 0 0 0 0 0 0 0 0 0 0 0 0 0 0 0 0 0 0 0 0 0 0 0 0 0 0 0 0 0 0 0 0 0 0 0 0 0 0 0 0 0 0 0 0 0 0 0 0 0 0 0 0 0 0 0 0 0 0 0 0 0 0 0 0 0 0 0 0 0 0 0 
-39 0 -15 -25 -25 0 -14 0 -11 0 -2 2 0 12 0 0 0 -8 -12 -8 -10 0 0 0 -25 2 -5 -4 2 -1 2 -7 0 0 0 0 -7 0 0 0 -5 0 0 -3 0 0 0 -2 0 2 0 0 0 0 0 0 0 0 0 0 0 0 -15 0 0 0 3 0 -3 0 0 10 0 0 0 0 0 0 3 0 0 0 -1 0 0 0 0 0 0 0 0 0 -5 0 0 0 -2 -10 0 0 0 0 0 0 0 0 0 0 0 0 0 0 0 -3 0 0 0 0 0 0 0 0 0 0 0 0 -1 0 0 0 0 0 0 0 0 0 0 0 0 0 0 0 0 0 0 0 0 0 0 0 0 0 4 0 0 0 0 0 0 0 0 1 0 -3 0 0 0 0 0 0 -7 0 0 0 0 0 0 -3 0 0 -15 0 0 0 0 0 0 0 0 3 0 0 0 0 0 0 0 0 0 0 -3 4 0 0 0 0 0 0 0 0 4 0 -10 0 0 0 0 0 0 0 2 0 0 0 0 0 0 0 2 15 0 0 0 0 0 0 -3 0 0 0 0 0 0 0 0 0 0 0 0 0 0 0 0 0 -13 -10 0 0 0 0 0 0 0 0 0 0 0 0 0 0 0 0 0 0 0 0 5 0 -10 0 0 2 0 0 0 0 0 0 0 0 0 0 0 0 0 0 0 0 0 0 0 0 0 0 0 2 0 0 -3 0 0 0 0 0 0 0 0 0 3 0 0 0 0 0 0 0 0 1 0 -3 0 0 18 -4 0 0 0 -4 0 0 1 0 0 -2 -15 0 0 0 3 0 0 0 0 0 10 0 0 0 0 0 0 0 -5 10 -2 0 0 0 0 0 0 0 0 0 0 0 0 0 0 0 0 0 0 0 0 0 0 0 0 0 0 0 0 0 0 0 0 0 0 0 0 0 0 0 0 0 0 0 0 0 0 0 0 0 0 0 0 0 0 0 0 0 0 0 0 0 0 0 0 0 0 0 0 0 0 0 0 0 0 0 0 0 0 0 0 0 0 0 0 0 
-4 0 -22 0 0 0 -4 0 -2 0 -1 0 0 0 0 0 0 0 -13 -1 -13 3 0 0 0 0 0 -2 0 -3 0 0 0 0 0 0 2 0 0 -2 0 0 0 0 0 0 0 0 0 0 0 0 0 0 0 0 0 0 0 0 0 0 0 0 0 0 3 0 -1 0 0 0 0 0 0 0 0 -2 3 0 -22 0 0 0 0 0 0 0 0 0 0 -22 0 0 0 0 0 -5 -22 0 0 0 0 0 0 0 0 0 0 -2 0 0 0 0 0 0 0 0 0 0 0 0 0 0 0 0 -3 0 0 0 0 0 0 0 0 0 0 0 0 0 0 0 0 0 0 0 0 0 0 0 0 0 0 -13 0 0 -13 -2 0 0 0 1 0 0 0 0 0 1 0 0 0 0 0 -43 0 0 0 -2 0 0 0 0 9 0 0 0 0 0 1 2 0 0 0 0 0 0 0 0 0 0 -1 -7 0 0 0 0 0 0 0 0 0 0 -5 22 0 0 0 0 0 0 2 0 0 -53 0 0 0 0 2 -1 0 0 0 0 0 0 -2 0 0 0 0 0 0 0 0 0 0 0 0 0 0 0 0 0 5 -5 0 0 -13 0 0 0 0 0 0 0 0 0 0 0 0 0 0 0 0 0 7 0 0 0 0 0 0 0 0 0 0 0 0 0 0 0 0 0 0 0 0 0 0 0 0 0 0 0 0 0 0 0 0 0 0 0 0 0 0 -9 0 -23 0 0 0 0 0 -2 0 0 0 1 0 -2 0 0 0 7 0 0 0 0 0 -22 0 0 0 -2 0 1 0 0 2 0 0 0 0 0 5 13 0 0 0 0 0 0 -7 0 0 0 0 0 0 0 0 0 0 0 0 0 0 0 0 0 0 0 0 0 0 0 0 0 0 0 0 0 0 0 0 0 0 0 0 0 0 0 0 0 0 0 0 0 0 0 0 0 0 0 0 0 0 0 0 0 0 0 0 0 0 0 0 0 0 0 0 0 0 0 0 0 0 0 0 0 0 0 0 0 0 0 0 0 0 0 
#OUTPUT END
Model has been successfully processed
